assets/logs/17_14x14_clingo/17_14x14_clingo.solution.log

---------------------------------------------------------
|138|148|158|172|134|180|109|179|105|  0| 10|  4|101|  0|
---------------------------------------------------------
|160|  0|136|150|111|174| 79|178| 83|  2|103|  0| 12|  6|
---------------------------------------------------------
|146|140|170|156| 77|132|  0|107|177| 24| 85|  8|173| 99|
---------------------------------------------------------
|168|162|144|117|152|113|176| 81|  0| 34|175|169| 20| 14|
---------------------------------------------------------
|142|119|154|164| 54| 75|130| 91| 26| 87| 22| 16| 97|171|
---------------------------------------------------------
|123|166| 11| 73|115| 50| 56|126| 32| 93| 36| 98|167| 18|
---------------------------------------------------------
|  9| 71|121| 52| 13|128|122| 28| 89| 80|165| 95| 38| 96|
---------------------------------------------------------
|  0|125|  7|  0|108| 58| 48| 86|124| 30|100| 82|163|  0|
---------------------------------------------------------
| 69|  0|129| 60|  5| 15| 74|120| 90| 84| 78| 40| 94| 35|
---------------------------------------------------------
|127| 53| 67|110| 72|106| 88| 46| 76|102| 92| 33|  0|161|
---------------------------------------------------------
|  0|131| 70| 55| 62|  3| 17|104|118| 31| 42|159| 37|  0|
---------------------------------------------------------
| 68| 65| 51|137|112| 57|116|149| 44|153| 43|  0| 27|  0|
---------------------------------------------------------
|133|139| 61| 64| 49|143|  1| 19| 45|147| 29| 23|157| 39|
---------------------------------------------------------
| 63| 66|135|141| 59|114| 47|145|151| 21|155| 41|  0| 25|
---------------------------------------------------------

| n = 14 | k = 5 | coverage = 184, 93.87755102040816%
 Time 300.001
 Name 17_14x14_clingo

