assets/logs/17_14x14_clingo/17_14x14_clingo.log
clingo version 5.4.0
Reading from ...s/logs/17_14x14_clingo/knights_tour.lp ...
Solving...
Answer: 1
occ(1,2,12) occ(1,14,13) occ(1,2,2) occ(1,3,7) occ(1,9,2) occ(2,13,7) occ(3,2,10) coverage(6)
Optimization: -6
Answer: 2
occ(1,2,12) occ(1,14,13) occ(1,2,2) occ(1,3,7) occ(1,9,2) occ(2,13,7) occ(3,2,10) coverage(8) occ(5,1,12) occ(7,2,14) occ(6,13,11) occ(4,14,9)
Optimization: -8
Answer: 3
occ(1,2,12) occ(1,14,13) occ(1,2,2) occ(1,3,7) occ(1,9,2) occ(2,13,7) occ(3,2,10) coverage(10) occ(5,1,12) occ(7,2,14) occ(9,4,13) occ(8,12,13) occ(6,13,11) occ(4,14,9)
Optimization: -10
Answer: 4
occ(1,2,12) occ(1,14,13) occ(1,2,2) occ(1,3,7) occ(1,9,2) occ(2,13,7) occ(3,2,10) coverage(12) occ(5,1,12) occ(7,2,14) occ(9,4,13) occ(11,6,14) occ(8,12,13) occ(6,13,11) occ(4,14,9) occ(10,14,14)
Optimization: -12
Answer: 5
occ(1,2,12) occ(1,14,13) occ(1,2,2) occ(1,3,7) occ(1,9,2) occ(2,13,7) occ(3,2,10) coverage(14) occ(5,1,12) occ(7,2,14) occ(9,4,13) occ(11,6,14) occ(13,8,13) occ(8,12,13) occ(6,13,11) occ(12,13,14) occ(4,14,9) occ(10,14,12)
Optimization: -14
Answer: 6
occ(1,2,12) occ(1,14,13) occ(1,2,2) occ(1,3,7) occ(1,9,2) occ(2,13,7) occ(3,2,10) coverage(105) occ(11,1,5) occ(39,1,3) occ(45,1,6) occ(46,1,11) occ(49,1,4) occ(50,1,13) occ(69,1,12) occ(79,1,7) occ(7,2,8) occ(13,2,3) occ(37,2,1) occ(43,2,4) occ(51,2,6) occ(67,2,14) occ(73,2,11) occ(77,2,9) occ(81,2,5) occ(9,3,6) occ(14,3,9) occ(35,3,3) occ(41,3,2) occ(44,3,10) occ(47,3,5) occ(48,3,12) occ(52,3,14) occ(53,3,8) occ(71,3,13) occ(5,4,9) occ(15,4,4) occ(16,4,7) occ(23,4,2) occ(29,4,3) occ(33,4,5) occ(42,4,8) occ(54,4,12) occ(65,4,13) occ(75,4,10) occ(83,4,6) occ(100,4,11) occ(12,5,8) occ(17,5,2) occ(18,5,5) occ(27,5,1) occ(40,5,6) occ(55,5,9) occ(85,5,4) occ(98,5,13) occ(110,5,3) occ(21,6,1) occ(25,6,3) occ(31,6,4) occ(56,6,13) occ(57,6,7) occ(63,6,12) occ(76,6,9) occ(87,6,2) occ(102,6,10) occ(106,6,6) occ(112,6,5) occ(10,7,9) occ(19,7,3) occ(20,7,6) occ(32,7,2) occ(38,7,5) occ(61,7,10) occ(74,7,11) occ(80,7,12) occ(96,7,14) occ(104,7,8) occ(108,7,4) occ(114,7,7) occ(30,8,4) occ(36,8,3) occ(58,8,12) occ(59,8,8) occ(72,8,13) occ(78,8,10) occ(82,8,14) occ(89,8,1) occ(116,8,9) occ(148,8,5) occ(174,8,2) occ(8,9,10) occ(22,9,5) occ(28,9,6) occ(34,9,1) occ(64,9,14) occ(94,9,13) occ(146,9,7) occ(168,9,8) occ(172,9,4) occ(26,10,8) occ(60,10,11) occ(66,10,12) occ(70,10,14) occ(84,10,13) occ(91,10,2) occ(118,10,10) occ(150,10,4) occ(160,10,3) occ(170,10,6) occ(176,10,1) occ(6,11,11) occ(24,11,6) occ(62,11,13) occ(92,11,14) occ(120,11,12) occ(144,11,8) occ(152,11,2) occ(158,11,1) occ(162,11,5) occ(166,11,7) occ(4,12,9) occ(68,12,13) occ(86,12,12) occ(93,12,3) occ(122,12,14) occ(136,12,1) occ(142,12,6) occ(154,12,4) occ(178,12,2) occ(90,13,13) occ(95,13,1) occ(99,13,5) occ(103,13,9) occ(124,13,12) occ(128,13,8) occ(132,13,4) occ(138,13,3) occ(156,13,2) occ(164,13,6) occ(88,14,11) occ(97,14,3) occ(101,14,7) occ(126,14,10) occ(130,14,6) occ(134,14,2) occ(140,14,5) occ(180,14,1)
Optimization: -105
Answer: 7
occ(1,2,12) occ(1,14,13) occ(1,2,2) occ(1,3,7) occ(1,9,2) occ(2,13,7) occ(3,2,10) coverage(110) occ(35,1,3) occ(42,1,5) occ(63,1,11) occ(67,1,7) occ(173,1,4) occ(177,1,8) occ(37,2,1) occ(38,2,4) occ(41,2,3) occ(61,2,13) occ(65,2,9) occ(69,2,5) occ(175,2,6) occ(33,3,2) occ(40,3,6) occ(44,3,4) occ(50,3,9) occ(53,3,8) occ(57,3,12) occ(64,3,10) occ(71,3,3) occ(131,3,11) occ(135,3,13) occ(171,3,5) occ(5,4,9) occ(32,4,7) occ(36,4,3) occ(39,4,2) occ(43,4,4) occ(46,4,6) occ(52,4,11) occ(55,4,10) occ(59,4,14) occ(66,4,8) occ(85,4,1) occ(129,4,13) occ(7,5,7) occ(28,5,10) occ(31,5,1) occ(34,5,5) occ(48,5,8) occ(51,5,9) occ(54,5,13) occ(62,5,11) occ(73,5,2) occ(83,5,3) occ(133,5,12) occ(137,5,14) occ(169,5,6) occ(26,6,12) occ(30,6,8) occ(45,6,3) occ(49,6,7) occ(60,6,13) occ(68,6,9) occ(81,6,5) occ(87,6,2) occ(106,6,10) occ(127,6,14) occ(167,6,4) occ(9,7,6) occ(22,7,9) occ(29,7,2) occ(47,7,5) occ(56,7,12) occ(75,7,3) occ(79,7,7) occ(89,7,4) occ(108,7,8) occ(113,7,14) occ(139,7,13) occ(24,8,11) occ(27,8,4) occ(58,8,14) occ(70,8,10) occ(77,8,5) occ(80,8,7) occ(91,8,2) occ(98,8,8) occ(104,8,9) occ(115,8,12) occ(125,8,13) occ(165,8,3) occ(11,9,5) occ(15,9,7) occ(20,9,8) occ(21,9,4) occ(78,9,9) occ(96,9,10) occ(102,9,11) occ(111,9,13) occ(117,9,14) occ(141,9,12) occ(163,9,1) occ(8,10,7) occ(19,10,6) occ(25,10,5) occ(72,10,11) occ(82,10,8) occ(93,10,1) occ(100,10,9) occ(119,10,12) occ(123,10,14) occ(10,11,5) occ(13,11,6) occ(17,11,8) occ(18,11,7) occ(23,11,3) occ(76,11,10) occ(94,11,9) occ(109,11,14) occ(143,11,13) occ(147,11,11) occ(161,11,2) occ(6,12,8) occ(12,12,3) occ(16,12,5) occ(74,12,12) occ(84,12,7) occ(92,12,11) occ(95,12,2) occ(121,12,13) occ(149,12,9) occ(155,12,4) occ(88,13,8) occ(99,13,5) occ(103,13,9) occ(107,13,13) occ(145,13,12) occ(153,13,6) occ(159,13,3) occ(4,14,9) occ(14,14,4) occ(86,14,6) occ(90,14,10) occ(97,14,3) occ(101,14,7) occ(105,14,11) occ(151,14,8) occ(157,14,5)
Optimization: -110
Answer: 8
occ(1,2,12) occ(1,14,13) occ(1,2,2) occ(1,3,7) occ(1,9,2) occ(2,13,7) occ(3,2,10) coverage(153) occ(32,1,6) occ(35,1,3) occ(38,1,5) occ(42,1,9) occ(45,1,4) occ(49,1,8) occ(55,1,13) occ(30,2,8) occ(34,2,4) occ(37,2,1) occ(40,2,7) occ(41,2,3) occ(47,2,6) occ(53,2,11) occ(5,3,12) occ(16,3,2) occ(33,3,4) occ(36,3,6) occ(43,3,5) occ(44,3,10) occ(51,3,9) occ(57,3,14) occ(108,3,8) occ(131,3,11) occ(135,3,13) occ(14,4,4) occ(15,4,8) occ(24,4,5) occ(28,4,7) occ(39,4,2) occ(46,4,12) occ(61,4,11) occ(102,4,6) occ(106,4,10) occ(112,4,9) occ(129,4,13) occ(7,5,11) occ(13,5,6) occ(18,5,1) occ(22,5,3) occ(31,5,5) occ(59,5,13) occ(63,5,9) occ(104,5,8) occ(110,5,7) occ(120,5,10) occ(133,5,12) occ(137,5,14) occ(11,6,8) occ(12,6,3) occ(17,6,7) occ(26,6,6) occ(48,6,11) occ(89,6,1) occ(100,6,5) occ(114,6,10) occ(117,6,13) occ(118,6,12) occ(127,6,14) occ(9,7,10) occ(10,7,1) occ(19,7,5) occ(20,7,2) occ(29,7,4) occ(65,7,8) occ(87,7,3) occ(98,7,7) occ(101,7,6) occ(113,7,14) occ(121,7,12) occ(122,7,9) occ(139,7,13) occ(8,8,3) occ(27,8,6) occ(50,8,10) occ(85,8,1) occ(91,8,2) occ(97,8,5) occ(103,8,8) occ(115,8,12) occ(116,8,11) occ(119,8,14) occ(124,8,7) occ(125,8,13) occ(21,9,4) occ(66,9,5) occ(67,9,9) occ(95,9,3) occ(96,9,8) occ(99,9,7) occ(105,9,10) occ(111,9,13) occ(123,9,11) occ(141,9,12) occ(145,9,14) occ(6,10,4) occ(25,10,5) occ(52,10,9) occ(64,10,3) occ(68,10,7) occ(75,10,6) occ(83,10,2) occ(93,10,1) occ(94,10,10) occ(109,10,11) occ(126,10,8) occ(140,10,13) occ(146,10,14) occ(147,10,12) occ(4,11,6) occ(23,11,3) occ(69,11,10) occ(70,11,5) occ(73,11,8) occ(77,11,4) occ(78,11,1) occ(107,11,9) occ(143,11,13) occ(144,11,12) occ(149,11,14) occ(54,12,8) occ(62,12,2) occ(76,12,3) occ(81,12,1) occ(82,12,4) occ(86,12,6) occ(92,12,11) occ(128,12,7) occ(138,12,12) occ(142,12,14) occ(148,12,13) occ(154,12,10) occ(58,13,5) occ(71,13,9) occ(72,13,6) occ(79,13,3) occ(80,13,2) occ(88,13,8) occ(132,13,10) occ(136,13,14) occ(151,13,13) occ(152,13,12) occ(56,14,7) occ(60,14,3) occ(74,14,4) occ(84,14,5) occ(90,14,10) occ(130,14,8) occ(134,14,12) occ(150,14,14)
Optimization: -153
Answer: 9
occ(1,2,12) occ(1,14,13) occ(1,2,2) occ(1,3,7) occ(1,9,2) occ(2,13,7) occ(3,2,10) coverage(163) occ(48,1,2) occ(54,1,5) occ(59,1,11) occ(63,1,7) occ(78,1,3) occ(155,1,13) occ(161,1,12) occ(21,2,5) occ(34,2,4) occ(52,2,3) occ(56,2,7) occ(57,2,13) occ(61,2,9) occ(64,2,11) occ(67,2,8) occ(74,2,6) occ(159,2,14) occ(5,3,8) occ(46,3,3) occ(50,3,1) occ(62,3,9) occ(65,3,6) occ(66,3,13) occ(69,3,10) occ(76,3,4) occ(79,3,11) occ(80,3,2) occ(153,3,14) occ(157,3,12) occ(7,4,10) occ(19,4,6) occ(23,4,4) occ(32,4,3) occ(36,4,5) occ(44,4,1) occ(55,4,14) occ(58,4,8) occ(68,4,11) occ(71,4,12) occ(72,4,7) occ(77,4,13) occ(81,4,9) occ(106,4,2) occ(9,5,8) occ(25,5,2) occ(30,5,1) occ(33,5,6) occ(60,5,10) occ(70,5,9) occ(73,5,14) occ(82,5,3) occ(83,5,11) occ(102,5,5) occ(108,5,4) occ(138,5,7) occ(151,5,13) occ(172,5,12) occ(17,6,5) occ(31,6,4) occ(35,6,8) occ(38,6,6) occ(42,6,2) occ(53,6,13) occ(75,6,12) occ(84,6,1) occ(104,6,3) occ(112,6,7) occ(136,6,9) occ(174,6,10) occ(11,7,7) occ(27,7,1) occ(28,7,2) occ(37,7,10) occ(40,7,4) occ(85,7,12) occ(86,7,3) occ(100,7,6) occ(110,7,5) occ(114,7,9) occ(134,7,11) occ(140,7,8) occ(149,7,14) occ(170,7,13) occ(15,8,4) occ(29,8,3) occ(39,8,8) occ(51,8,12) occ(88,8,5) occ(96,8,7) occ(107,8,6) occ(116,8,11) occ(132,8,13) occ(142,8,10) occ(152,8,1) occ(176,8,9) occ(13,9,6) occ(26,9,1) occ(49,9,10) occ(87,9,11) occ(98,9,5) occ(109,9,4) occ(144,9,8) occ(147,9,13) occ(150,9,3) occ(168,9,12) occ(41,10,9) occ(47,10,8) occ(90,10,4) occ(91,10,14) occ(94,10,6) occ(101,10,11) occ(105,10,7) occ(113,10,3) occ(118,10,10) occ(130,10,12) occ(141,10,13) occ(148,10,5) occ(154,10,2) occ(8,11,8) occ(24,11,2) occ(45,11,6) occ(89,11,12) occ(99,11,13) occ(103,11,9) occ(111,11,5) occ(115,11,1) occ(123,11,3) occ(124,11,10) occ(145,11,14) occ(146,11,7) occ(156,11,4) occ(166,11,11) occ(6,12,10) occ(10,12,6) occ(18,12,2) occ(43,12,8) occ(92,12,5) occ(93,12,13) occ(117,12,3) occ(120,12,9) occ(125,12,1) occ(128,12,11) occ(139,12,14) occ(143,12,12) occ(160,12,7) occ(14,13,3) occ(22,13,1) occ(97,13,14) occ(121,13,2) occ(122,13,11) occ(126,13,9) occ(129,13,4) occ(133,13,8) occ(137,13,12) occ(158,13,5) occ(164,13,10) occ(4,14,9) occ(12,14,5) occ(16,14,1) occ(20,14,3) occ(95,14,12) occ(119,14,4) occ(127,14,2) occ(131,14,6) occ(135,14,10) occ(162,14,8)
Optimization: -163
Answer: 10
occ(1,2,12) occ(1,14,13) occ(1,2,2) occ(1,3,7) occ(1,9,2) occ(2,13,7) occ(3,2,10) coverage(165) occ(5,1,8) occ(48,1,2) occ(54,1,5) occ(61,1,12) occ(70,1,9) occ(78,1,3) occ(85,1,10) occ(155,1,13) occ(163,1,11) occ(21,2,5) occ(34,2,4) occ(52,2,3) occ(59,2,14) occ(68,2,7) occ(74,2,6) occ(81,2,9) occ(87,2,8) occ(157,2,11) occ(161,2,13) occ(7,3,9) occ(46,3,3) occ(50,3,1) occ(56,3,6) occ(57,3,12) occ(60,3,10) occ(63,3,13) occ(66,3,5) occ(72,3,8) occ(76,3,4) occ(80,3,2) occ(83,3,11) occ(153,3,14) occ(19,4,6) occ(23,4,4) occ(32,4,3) occ(36,4,5) occ(44,4,1) occ(55,4,14) occ(58,4,8) occ(64,4,7) occ(69,4,11) occ(79,4,10) occ(89,4,9) occ(106,4,2) occ(159,4,12) occ(9,5,8) occ(25,5,2) occ(30,5,1) occ(33,5,6) occ(62,5,9) occ(65,5,14) occ(73,5,12) occ(82,5,3) occ(91,5,11) occ(102,5,5) occ(108,5,4) occ(138,5,7) occ(151,5,13) occ(17,6,5) occ(31,6,4) occ(35,6,8) occ(38,6,6) occ(42,6,2) occ(53,6,13) occ(67,6,12) occ(71,6,10) occ(77,6,11) occ(84,6,1) occ(104,6,3) occ(112,6,7) occ(136,6,9) occ(11,7,7) occ(27,7,1) occ(28,7,2) occ(37,7,10) occ(40,7,4) occ(75,7,13) occ(86,7,3) occ(93,7,12) occ(100,7,6) occ(110,7,5) occ(114,7,9) occ(134,7,11) occ(140,7,8) occ(149,7,14) occ(15,8,4) occ(29,8,3) occ(39,8,8) occ(51,8,12) occ(88,8,5) occ(95,8,14) occ(96,8,7) occ(107,8,6) occ(116,8,11) occ(132,8,13) occ(142,8,10) occ(152,8,1) occ(176,8,9) occ(13,9,6) occ(26,9,1) occ(49,9,10) occ(97,9,12) occ(98,9,5) occ(109,9,4) occ(144,9,8) occ(147,9,13) occ(150,9,3) occ(174,9,11) occ(41,10,9) occ(47,10,8) occ(90,10,4) occ(94,10,6) occ(101,10,11) occ(105,10,7) occ(113,10,3) occ(118,10,10) occ(130,10,12) occ(141,10,13) occ(148,10,5) occ(154,10,2) occ(170,10,14) occ(8,11,8) occ(24,11,2) occ(45,11,6) occ(99,11,13) occ(103,11,9) occ(111,11,5) occ(115,11,1) occ(123,11,3) occ(124,11,10) occ(145,11,14) occ(146,11,7) occ(156,11,4) occ(166,11,11) occ(172,11,12) occ(6,12,10) occ(10,12,6) occ(18,12,2) occ(43,12,8) occ(92,12,5) occ(117,12,3) occ(120,12,9) occ(125,12,1) occ(128,12,11) occ(139,12,14) occ(143,12,12) occ(160,12,7) occ(168,12,13) occ(14,13,3) occ(22,13,1) occ(121,13,2) occ(122,13,11) occ(126,13,9) occ(129,13,4) occ(133,13,8) occ(137,13,12) occ(158,13,5) occ(164,13,10) occ(4,14,9) occ(12,14,5) occ(16,14,1) occ(20,14,3) occ(119,14,4) occ(127,14,2) occ(131,14,6) occ(135,14,10) occ(162,14,8)
Optimization: -165
Answer: 11
occ(1,2,12) occ(1,14,13) occ(1,2,2) occ(1,3,7) occ(1,9,2) occ(2,13,7) occ(3,2,10) coverage(169) occ(36,1,2) occ(58,1,7) occ(62,1,9) occ(65,1,12) occ(66,1,5) occ(70,1,1) occ(74,1,3) occ(75,1,11) occ(168,1,4) occ(34,2,4) occ(56,2,5) occ(64,2,7) occ(67,2,14) occ(68,2,3) occ(73,2,9) occ(76,2,1) occ(77,2,13) occ(87,2,8) occ(104,2,11) occ(166,2,6) occ(31,3,5) occ(38,3,1) occ(60,3,8) occ(63,3,13) occ(69,3,12) occ(72,3,2) occ(78,3,3) occ(79,3,11) occ(85,3,6) occ(102,3,9) occ(164,3,4) occ(5,4,11) occ(32,4,5) occ(33,4,7) occ(40,4,3) occ(54,4,4) occ(57,4,13) occ(71,4,10) occ(80,4,1) occ(83,4,8) occ(86,4,2) occ(89,4,9) occ(90,4,6) occ(106,4,12) occ(7,5,13) occ(29,5,6) occ(42,5,1) occ(52,5,2) occ(55,5,11) occ(61,5,14) occ(81,5,10) occ(82,5,3) occ(88,5,4) occ(93,5,12) occ(100,5,8) occ(134,5,7) occ(162,5,5) occ(27,6,4) occ(30,6,6) occ(35,6,8) occ(48,6,5) occ(59,6,12) occ(84,6,1) occ(91,6,10) occ(92,6,7) occ(95,6,14) occ(108,6,13) occ(136,6,9) occ(150,6,2) occ(160,6,3) occ(9,7,14) occ(10,7,7) occ(25,7,6) occ(28,7,4) occ(44,7,2) occ(50,7,3) occ(53,7,10) occ(94,7,5) occ(97,7,12) occ(98,7,9) occ(132,7,8) occ(138,7,11) occ(163,7,13) occ(12,8,5) occ(26,8,6) occ(37,8,9) occ(46,8,4) occ(51,8,8) occ(96,8,7) occ(99,8,10) occ(110,8,12) occ(124,8,13) occ(148,8,3) occ(152,8,1) occ(158,8,2) occ(159,8,14) occ(165,8,11) occ(8,9,8) occ(11,9,13) occ(23,9,7) occ(49,9,6) occ(112,9,14) occ(125,9,4) occ(126,9,11) occ(130,9,9) occ(131,9,1) occ(140,9,10) occ(146,9,5) occ(154,9,3) occ(161,9,12) occ(6,10,6) occ(14,10,4) occ(21,10,9) occ(24,10,5) occ(39,10,10) occ(101,10,11) occ(105,10,7) occ(115,10,2) occ(122,10,14) occ(129,10,3) occ(142,10,8) occ(156,10,1) occ(157,10,13) occ(167,10,12) occ(13,11,14) occ(19,11,11) occ(47,11,7) occ(103,11,9) occ(114,11,13) occ(117,11,4) occ(123,11,3) occ(127,11,5) occ(128,11,10) occ(133,11,2) occ(144,11,6) occ(149,11,12) occ(4,12,5) occ(15,12,12) occ(16,12,3) occ(22,12,4) occ(41,12,9) occ(107,12,6) occ(113,12,1) occ(119,12,2) occ(120,12,13) occ(141,12,7) occ(151,12,10) occ(155,12,14) occ(17,13,10) occ(20,13,6) occ(45,13,8) occ(111,13,3) occ(116,13,14) occ(121,13,4) occ(135,13,1) occ(139,13,5) occ(143,13,9) occ(147,13,13) occ(153,13,12) occ(18,14,4) occ(43,14,10) occ(109,14,5) occ(118,14,12) occ(137,14,3) occ(145,14,11)
Optimization: -169
Answer: 12
occ(1,2,12) occ(1,14,13) occ(1,2,2) occ(1,3,7) occ(1,9,2) occ(2,13,7) occ(3,2,10) coverage(176) occ(36,1,12) occ(67,1,11) occ(71,1,7) occ(79,1,1) occ(92,1,4) occ(108,1,8) occ(115,1,9) occ(119,1,13) occ(22,2,4) occ(34,2,14) occ(65,2,13) occ(69,2,9) occ(73,2,5) occ(77,2,3) occ(96,2,7) occ(102,2,8) occ(106,2,6) occ(117,2,11) occ(20,3,6) occ(38,3,13) occ(41,3,4) occ(51,3,11) occ(61,3,12) occ(81,3,2) occ(87,3,1) occ(90,3,3) occ(94,3,5) occ(100,3,10) occ(110,3,9) occ(113,3,8) occ(121,3,14) occ(5,4,11) occ(24,4,5) occ(29,4,1) occ(32,4,13) occ(39,4,2) occ(43,4,6) occ(53,4,9) occ(63,4,14) occ(75,4,4) occ(85,4,3) occ(98,4,8) occ(104,4,7) occ(114,4,10) occ(123,4,12) occ(18,5,5) occ(26,5,7) occ(27,5,3) occ(30,5,11) occ(40,5,14) occ(49,5,10) occ(59,5,13) occ(83,5,1) occ(88,5,4) occ(89,5,2) occ(111,5,9) occ(112,5,8) occ(116,5,12) occ(133,5,6) occ(7,6,12) occ(25,6,5) occ(28,6,9) occ(31,6,2) occ(37,6,1) occ(45,6,7) occ(55,6,10) occ(86,6,6) occ(93,6,3) occ(118,6,14) occ(125,6,13) occ(131,6,8) occ(135,6,4) occ(164,6,11) occ(16,7,6) occ(23,7,7) occ(35,7,3) occ(42,7,13) occ(47,7,9) occ(57,7,12) occ(84,7,4) occ(91,7,1) occ(95,7,5) occ(109,7,8) occ(127,7,11) occ(137,7,2) occ(9,8,11) occ(12,8,7) occ(33,8,1) occ(60,8,5) occ(82,8,2) occ(103,8,4) occ(120,8,13) occ(129,8,9) occ(150,8,8) occ(162,8,10) occ(166,8,12) occ(169,8,3) occ(14,9,5) occ(21,9,8) occ(44,9,12) occ(54,9,9) occ(97,9,4) occ(101,9,6) occ(107,9,7) occ(122,9,11) occ(139,9,3) occ(148,9,10) occ(167,9,1) occ(168,9,14) occ(174,9,13) occ(10,10,8) occ(11,10,10) occ(58,10,6) occ(62,10,4) occ(80,10,3) occ(105,10,5) occ(124,10,13) occ(138,10,14) occ(141,10,1) occ(146,10,12) occ(152,10,7) occ(160,10,9) occ(171,10,2) occ(172,10,11) occ(8,11,6) occ(19,11,9) occ(46,11,11) occ(52,11,10) occ(56,11,8) occ(74,11,3) occ(78,11,1) occ(99,11,5) occ(140,11,12) occ(144,11,14) occ(158,11,7) occ(161,11,4) occ(165,11,2) occ(170,11,13) occ(6,12,4) occ(13,12,9) occ(17,12,7) occ(50,12,12) occ(64,12,5) occ(72,12,1) occ(126,12,14) occ(132,12,11) occ(136,12,13) occ(143,12,2) occ(154,12,8) occ(155,12,10) occ(159,12,6) occ(173,12,3) occ(48,13,10) occ(68,13,4) occ(76,13,2) occ(128,13,12) occ(142,13,13) occ(147,13,5) occ(151,13,9) occ(156,13,6) occ(157,13,8) occ(163,13,3) occ(4,14,5) occ(15,14,8) occ(66,14,6) occ(70,14,2) occ(130,14,10) occ(134,14,12) occ(145,14,3) occ(149,14,7) occ(153,14,11) occ(175,14,4)
Optimization: -176
Answer: 13
occ(1,2,12) occ(1,14,13) occ(1,2,2) occ(1,3,7) occ(1,9,2) occ(2,13,7) occ(3,2,10) coverage(177) occ(33,1,4) occ(36,1,12) occ(39,1,5) occ(67,1,11) occ(71,1,7) occ(77,1,2) occ(83,1,1) occ(104,1,10) occ(115,1,9) occ(119,1,13) occ(29,2,7) occ(34,2,14) occ(35,2,6) occ(65,2,13) occ(69,2,9) occ(73,2,5) occ(79,2,4) occ(85,2,3) occ(102,2,8) occ(117,2,11) occ(31,3,5) occ(37,3,4) occ(38,3,13) occ(41,3,6) occ(51,3,11) occ(61,3,12) occ(75,3,3) occ(81,3,2) occ(87,3,1) occ(100,3,10) occ(106,3,9) occ(113,3,8) occ(121,3,14) occ(5,4,11) occ(20,4,1) occ(24,4,5) occ(27,4,6) occ(32,4,13) occ(53,4,9) occ(63,4,14) occ(86,4,2) occ(89,4,3) occ(94,4,4) occ(98,4,8) occ(108,4,7) occ(114,4,10) occ(123,4,12) occ(22,5,3) occ(26,5,7) occ(30,5,11) occ(40,5,14) occ(43,5,5) occ(49,5,10) occ(59,5,13) occ(88,5,4) occ(91,5,1) occ(92,5,2) occ(96,5,6) occ(111,5,9) occ(112,5,8) occ(116,5,12) occ(7,6,12) occ(18,6,2) occ(25,6,5) occ(28,6,9) occ(45,6,7) occ(55,6,10) occ(84,6,1) occ(93,6,3) occ(110,6,6) occ(118,6,14) occ(125,6,13) occ(131,6,8) occ(135,6,4) occ(164,6,11) occ(16,7,4) occ(23,7,7) occ(42,7,13) occ(47,7,9) occ(57,7,12) occ(90,7,3) occ(95,7,5) occ(109,7,8) occ(127,7,11) occ(133,7,6) occ(137,7,2) occ(176,7,14) occ(9,8,11) occ(12,8,7) occ(60,8,5) occ(82,8,2) occ(103,8,4) occ(120,8,13) occ(129,8,9) occ(150,8,8) occ(162,8,10) occ(166,8,12) occ(169,8,3) occ(14,9,5) occ(21,9,8) occ(44,9,12) occ(54,9,9) occ(97,9,4) occ(101,9,6) occ(107,9,7) occ(122,9,11) occ(139,9,3) occ(148,9,10) occ(167,9,1) occ(168,9,14) occ(174,9,13) occ(10,10,8) occ(11,10,10) occ(58,10,6) occ(62,10,4) occ(80,10,3) occ(105,10,5) occ(124,10,13) occ(138,10,14) occ(141,10,1) occ(146,10,12) occ(152,10,7) occ(160,10,9) occ(171,10,2) occ(172,10,11) occ(8,11,6) occ(19,11,9) occ(46,11,11) occ(52,11,10) occ(56,11,8) occ(74,11,3) occ(78,11,1) occ(99,11,5) occ(140,11,12) occ(144,11,14) occ(158,11,7) occ(161,11,4) occ(165,11,2) occ(170,11,13) occ(6,12,4) occ(13,12,9) occ(17,12,7) occ(50,12,12) occ(64,12,5) occ(72,12,1) occ(126,12,14) occ(132,12,11) occ(136,12,13) occ(143,12,2) occ(154,12,8) occ(155,12,10) occ(159,12,6) occ(173,12,3) occ(48,13,10) occ(68,13,4) occ(76,13,2) occ(128,13,12) occ(142,13,13) occ(147,13,5) occ(151,13,9) occ(156,13,6) occ(157,13,8) occ(163,13,3) occ(4,14,5) occ(15,14,8) occ(66,14,6) occ(70,14,2) occ(130,14,10) occ(134,14,12) occ(145,14,3) occ(149,14,7) occ(153,14,11) occ(175,14,4)
Optimization: -177
Answer: 14
occ(1,2,12) occ(1,14,13) occ(1,2,2) occ(1,3,7) occ(1,9,2) occ(2,13,7) occ(3,2,10) coverage(178) occ(17,1,12) occ(51,1,5) occ(55,1,3) occ(128,1,2) occ(138,1,7) occ(142,1,11) occ(148,1,10) occ(152,1,6) occ(15,2,14) occ(21,2,11) occ(49,2,7) occ(57,2,1) occ(132,2,3) occ(139,2,6) occ(140,2,9) occ(144,2,13) occ(150,2,8) occ(154,2,4) occ(176,2,5) occ(5,3,12) occ(19,3,13) occ(47,3,9) occ(53,3,4) occ(101,3,10) occ(126,3,3) occ(130,3,1) occ(136,3,6) occ(141,3,8) occ(146,3,11) occ(156,3,2) occ(162,3,5) occ(7,4,14) occ(13,4,13) occ(23,4,12) occ(41,4,11) occ(59,4,2) occ(99,4,8) occ(109,4,9) occ(124,4,1) occ(134,4,4) occ(137,4,5) occ(143,4,10) occ(160,4,3) occ(164,4,7) occ(174,4,6) occ(9,5,12) occ(20,5,8) occ(39,5,13) occ(45,5,10) occ(97,5,6) occ(103,5,11) occ(110,5,5) occ(111,5,7) occ(135,5,3) occ(158,5,1) occ(166,5,9) occ(172,5,4) occ(177,5,14) occ(11,6,14) occ(25,6,13) occ(33,6,11) occ(43,6,12) occ(58,6,4) occ(61,6,3) occ(82,6,8) occ(107,6,10) occ(112,6,7) occ(113,6,5) occ(122,6,2) occ(133,6,1) occ(145,6,9) occ(170,6,6) occ(18,7,7) occ(22,7,9) occ(37,7,14) occ(56,7,2) occ(84,7,10) occ(95,7,5) occ(105,7,12) occ(108,7,6) occ(115,7,3) occ(116,7,4) occ(147,7,11) occ(168,7,8) occ(175,7,13) occ(14,8,8) occ(24,8,11) occ(27,8,14) occ(31,8,10) occ(32,8,13) occ(35,8,12) occ(60,8,3) occ(63,8,4) occ(80,8,7) occ(114,8,6) occ(117,8,5) occ(120,8,1) occ(131,8,2) occ(149,8,9) occ(16,9,6) occ(26,9,13) occ(29,9,12) occ(54,9,1) occ(67,9,7) occ(78,9,9) occ(86,9,11) occ(89,9,8) occ(93,9,4) occ(106,9,5) occ(118,9,3) occ(173,9,14) occ(12,10,7) occ(30,10,12) occ(34,10,14) occ(44,10,9) occ(62,10,2) occ(65,10,5) occ(71,10,10) occ(76,10,11) occ(77,10,13) occ(91,10,6) occ(104,10,3) occ(119,10,4) occ(129,10,1) occ(151,10,8) occ(10,11,5) occ(28,11,14) occ(42,11,11) occ(46,11,7) occ(52,11,2) occ(64,11,4) occ(69,11,8) occ(73,11,12) occ(87,11,9) occ(88,11,10) occ(96,11,6) occ(102,11,1) occ(127,11,3) occ(171,11,13) occ(4,12,9) occ(36,12,13) occ(48,12,5) occ(66,12,6) occ(74,12,10) occ(75,12,14) occ(79,12,12) occ(94,12,8) occ(98,12,4) occ(121,12,3) occ(125,12,1) occ(153,12,7) occ(159,12,2) occ(169,12,11) occ(8,13,6) occ(40,13,12) occ(50,13,3) occ(70,13,9) occ(81,13,14) occ(85,13,10) occ(90,13,11) occ(100,13,2) occ(155,13,5) occ(161,13,4) occ(165,13,8) occ(6,14,8) occ(38,14,14) occ(68,14,7) occ(72,14,11) occ(83,14,12) occ(92,14,9) occ(123,14,2) occ(157,14,3) occ(163,14,6) occ(167,14,10)
Optimization: -178
Answer: 15
occ(1,2,12) occ(1,14,13) occ(1,2,2) occ(1,3,7) occ(1,9,2) occ(2,13,7) occ(3,2,10) coverage(179) occ(5,1,12) occ(14,1,9) occ(28,1,2) occ(32,1,4) occ(36,1,6) occ(96,1,10) occ(110,1,13) occ(137,1,8) occ(143,1,5) occ(146,1,3) occ(150,1,7) occ(178,1,11) occ(7,2,14) occ(16,2,7) occ(38,2,4) occ(94,2,8) occ(108,2,11) occ(139,2,6) occ(144,2,1) occ(145,2,3) occ(148,2,5) occ(176,2,13) occ(9,3,12) occ(12,3,10) occ(26,3,1) occ(30,3,3) occ(34,3,5) occ(40,3,6) occ(98,3,11) occ(106,3,13) occ(112,3,14) occ(135,3,9) occ(141,3,4) occ(152,3,8) occ(18,4,6) occ(42,4,8) occ(57,4,3) occ(88,4,9) occ(92,4,7) occ(100,4,13) occ(114,4,12) occ(133,4,11) occ(142,4,2) occ(147,4,4) occ(154,4,10) occ(174,4,14) occ(10,5,11) occ(11,5,13) occ(20,5,4) occ(24,5,2) occ(44,5,10) occ(50,5,7) occ(59,5,5) occ(75,5,9) occ(84,5,8) occ(104,5,12) occ(116,5,14) occ(138,5,3) occ(48,6,9) occ(54,6,4) occ(55,6,2) occ(77,6,7) occ(82,6,6) occ(86,6,10) occ(90,6,8) occ(102,6,14) occ(131,6,12) occ(136,6,5) occ(140,6,1) occ(149,6,3) occ(156,6,11) occ(172,6,13) occ(8,7,10) occ(13,7,14) occ(17,7,12) occ(22,7,3) occ(46,7,11) occ(52,7,6) occ(56,7,2) occ(61,7,4) occ(73,7,8) occ(118,7,13) occ(127,7,9) occ(134,7,7) occ(151,7,1) occ(155,7,5) occ(19,8,10) occ(53,8,1) occ(67,8,2) occ(71,8,6) occ(79,8,8) occ(80,8,7) occ(85,8,13) occ(128,8,9) occ(129,8,11) occ(132,8,5) occ(153,8,3) occ(158,8,12) occ(170,8,14) occ(6,9,9) occ(15,9,13) occ(43,9,11) occ(51,9,3) occ(58,9,1) occ(63,9,5) occ(69,9,4) occ(81,9,10) occ(120,9,14) occ(125,9,8) occ(130,9,7) occ(157,9,6) occ(168,9,12) occ(21,10,11) occ(37,10,7) occ(45,10,9) occ(49,10,5) occ(65,10,3) occ(68,10,1) occ(78,10,8) occ(83,10,12) occ(87,10,14) occ(123,10,6) occ(126,10,10) occ(159,10,4) occ(160,10,13) occ(4,11,8) occ(33,11,4) occ(41,11,10) occ(47,11,7) occ(60,11,2) occ(70,11,3) occ(93,11,12) occ(97,11,14) occ(107,11,9) occ(122,11,13) occ(161,11,6) occ(166,11,11) occ(175,11,1) occ(23,12,10) occ(35,12,6) occ(39,12,8) occ(66,12,2) occ(76,12,7) occ(89,12,13) occ(99,12,12) occ(113,12,9) occ(121,12,5) occ(124,12,11) occ(162,12,14) occ(163,12,4) occ(169,12,1) occ(173,12,3) occ(27,13,9) occ(31,13,5) occ(62,13,1) occ(72,13,4) occ(91,13,11) occ(95,13,13) occ(101,13,14) occ(105,13,10) occ(109,13,8) occ(117,13,6) occ(164,13,12) occ(167,13,3) occ(177,13,2) occ(25,14,11) occ(29,14,7) occ(64,14,3) occ(74,14,6) occ(103,14,12) occ(111,14,10) occ(115,14,8) occ(119,14,4) occ(165,14,5) occ(171,14,2)
Optimization: -179
Answer: 16
occ(1,2,12) occ(1,14,13) occ(1,2,2) occ(1,3,7) occ(1,9,2) occ(2,13,7) occ(3,2,10) coverage(180) occ(5,1,12) occ(11,1,11) occ(102,1,13) occ(106,1,9) occ(110,1,7) occ(135,1,5) occ(139,1,1) occ(149,1,2) occ(159,1,3) occ(173,1,4) occ(7,2,14) occ(13,2,13) occ(80,2,7) occ(84,2,9) occ(104,2,11) occ(112,2,5) occ(137,2,3) occ(151,2,4) occ(161,2,1) occ(175,2,6) occ(179,2,8) occ(9,3,12) occ(25,3,10) occ(78,3,5) occ(86,3,11) occ(100,3,14) occ(108,3,8) occ(133,3,6) occ(141,3,2) occ(147,3,1) occ(157,3,4) occ(171,3,3) occ(174,3,13) occ(178,3,9) occ(15,4,14) occ(21,4,13) occ(35,4,10) occ(82,4,8) occ(114,4,6) occ(118,4,4) occ(145,4,3) occ(153,4,5) occ(163,4,2) occ(169,4,1) occ(170,4,12) occ(176,4,11) occ(177,4,7) occ(17,5,12) occ(23,5,11) occ(27,5,9) occ(55,5,5) occ(76,5,6) occ(88,5,10) occ(92,5,8) occ(98,5,13) occ(120,5,2) occ(131,5,7) occ(143,5,1) occ(155,5,3) occ(165,5,4) occ(172,5,14) occ(12,6,3) occ(19,6,14) occ(33,6,9) occ(37,6,11) occ(51,6,6) occ(57,6,7) occ(74,6,4) occ(94,6,10) occ(99,6,12) occ(116,6,5) occ(124,6,1) occ(127,6,8) occ(167,6,2) occ(168,6,13) occ(10,7,1) occ(14,7,5) occ(29,7,8) occ(39,7,13) occ(53,7,4) occ(72,7,2) occ(81,7,10) occ(90,7,9) occ(96,7,12) occ(97,7,14) occ(122,7,3) occ(123,7,7) occ(129,7,6) occ(166,7,11) occ(8,8,3) occ(31,8,10) occ(49,8,7) occ(59,8,6) occ(83,8,12) occ(87,8,8) occ(101,8,11) occ(109,8,5) occ(125,8,9) occ(126,8,2) occ(164,8,13) occ(6,9,5) occ(16,9,6) occ(36,9,14) occ(41,9,12) occ(61,9,4) occ(70,9,1) occ(75,9,7) occ(79,9,11) occ(85,9,10) occ(91,9,9) occ(95,9,13) occ(121,9,8) occ(130,9,3) occ(34,10,12) occ(47,10,8) occ(54,10,2) occ(68,10,3) occ(73,10,5) occ(77,10,9) occ(89,10,7) occ(93,10,11) occ(103,10,10) occ(107,10,6) occ(111,10,4) occ(128,10,1) occ(162,10,14) occ(4,11,6) occ(18,11,7) occ(32,11,10) occ(38,11,13) occ(43,11,11) occ(56,11,4) occ(63,11,5) occ(71,11,3) occ(105,11,8) occ(119,11,9) occ(132,11,2) occ(160,11,12) occ(28,12,13) occ(44,12,11) occ(45,12,9) occ(52,12,3) occ(58,12,6) occ(66,12,2) occ(69,12,1) occ(113,12,5) occ(117,12,7) occ(138,12,4) occ(150,12,8) occ(154,12,10) occ(20,13,8) occ(24,13,12) occ(30,13,11) occ(40,13,14) occ(46,13,9) occ(50,13,5) occ(62,13,3) occ(65,13,4) occ(134,13,1) occ(140,13,2) occ(144,13,6) occ(148,13,10) occ(158,13,13) occ(22,14,10) occ(26,14,14) occ(42,14,12) occ(48,14,7) occ(60,14,5) occ(64,14,1) occ(67,14,2) occ(115,14,6) occ(136,14,3) occ(142,14,4) occ(146,14,8) occ(152,14,9) occ(156,14,11)
Optimization: -180
Answer: 17
occ(1,2,12) occ(1,14,13) occ(1,2,2) occ(1,3,7) occ(1,9,2) occ(2,13,7) occ(3,2,10) coverage(181) occ(5,1,12) occ(11,1,11) occ(102,1,13) occ(106,1,9) occ(110,1,7) occ(135,1,5) occ(139,1,1) occ(149,1,2) occ(159,1,3) occ(173,1,4) occ(180,1,8) occ(7,2,14) occ(13,2,13) occ(80,2,7) occ(84,2,9) occ(104,2,11) occ(112,2,5) occ(137,2,3) occ(151,2,4) occ(161,2,1) occ(175,2,6) occ(179,2,8) occ(9,3,12) occ(25,3,10) occ(78,3,5) occ(86,3,11) occ(100,3,14) occ(108,3,8) occ(133,3,6) occ(141,3,2) occ(147,3,1) occ(157,3,4) occ(171,3,3) occ(174,3,13) occ(178,3,9) occ(15,4,14) occ(21,4,13) occ(35,4,10) occ(82,4,8) occ(114,4,6) occ(118,4,4) occ(145,4,3) occ(153,4,5) occ(163,4,2) occ(169,4,1) occ(170,4,12) occ(176,4,11) occ(177,4,7) occ(17,5,12) occ(23,5,11) occ(27,5,9) occ(55,5,5) occ(76,5,6) occ(88,5,10) occ(92,5,8) occ(98,5,13) occ(120,5,2) occ(131,5,7) occ(143,5,1) occ(155,5,3) occ(165,5,4) occ(172,5,14) occ(12,6,3) occ(19,6,14) occ(33,6,9) occ(37,6,11) occ(51,6,6) occ(57,6,7) occ(74,6,4) occ(94,6,10) occ(99,6,12) occ(116,6,5) occ(124,6,1) occ(127,6,8) occ(167,6,2) occ(168,6,13) occ(10,7,1) occ(14,7,5) occ(29,7,8) occ(39,7,13) occ(53,7,4) occ(72,7,2) occ(81,7,10) occ(90,7,9) occ(96,7,12) occ(97,7,14) occ(122,7,3) occ(123,7,7) occ(129,7,6) occ(166,7,11) occ(8,8,3) occ(31,8,10) occ(49,8,7) occ(59,8,6) occ(83,8,12) occ(87,8,8) occ(101,8,11) occ(109,8,5) occ(125,8,9) occ(126,8,2) occ(164,8,13) occ(6,9,5) occ(16,9,6) occ(36,9,14) occ(41,9,12) occ(61,9,4) occ(70,9,1) occ(75,9,7) occ(79,9,11) occ(85,9,10) occ(91,9,9) occ(95,9,13) occ(121,9,8) occ(130,9,3) occ(34,10,12) occ(47,10,8) occ(54,10,2) occ(68,10,3) occ(73,10,5) occ(77,10,9) occ(89,10,7) occ(93,10,11) occ(103,10,10) occ(107,10,6) occ(111,10,4) occ(128,10,1) occ(162,10,14) occ(4,11,6) occ(18,11,7) occ(32,11,10) occ(38,11,13) occ(43,11,11) occ(56,11,4) occ(63,11,5) occ(71,11,3) occ(105,11,8) occ(119,11,9) occ(132,11,2) occ(160,11,12) occ(28,12,13) occ(44,12,11) occ(45,12,9) occ(52,12,3) occ(58,12,6) occ(66,12,2) occ(69,12,1) occ(113,12,5) occ(117,12,7) occ(138,12,4) occ(150,12,8) occ(154,12,10) occ(20,13,8) occ(24,13,12) occ(30,13,11) occ(40,13,14) occ(46,13,9) occ(50,13,5) occ(62,13,3) occ(65,13,4) occ(134,13,1) occ(140,13,2) occ(144,13,6) occ(148,13,10) occ(158,13,13) occ(22,14,10) occ(26,14,14) occ(42,14,12) occ(48,14,7) occ(60,14,5) occ(64,14,1) occ(67,14,2) occ(115,14,6) occ(136,14,3) occ(142,14,4) occ(146,14,8) occ(152,14,9) occ(156,14,11)
Optimization: -181
Answer: 18
occ(1,2,12) occ(1,14,13) occ(1,2,2) occ(1,3,7) occ(1,9,2) occ(2,13,7) occ(3,2,10) coverage(182) occ(5,1,12) occ(11,1,11) occ(102,1,13) occ(106,1,9) occ(110,1,7) occ(135,1,5) occ(139,1,1) occ(149,1,2) occ(159,1,3) occ(173,1,4) occ(180,1,8) occ(181,1,6) occ(7,2,14) occ(13,2,13) occ(80,2,7) occ(84,2,9) occ(104,2,11) occ(112,2,5) occ(137,2,3) occ(151,2,4) occ(161,2,1) occ(175,2,6) occ(179,2,8) occ(9,3,12) occ(25,3,10) occ(78,3,5) occ(86,3,11) occ(100,3,14) occ(108,3,8) occ(133,3,6) occ(141,3,2) occ(147,3,1) occ(157,3,4) occ(171,3,3) occ(174,3,13) occ(178,3,9) occ(15,4,14) occ(21,4,13) occ(35,4,10) occ(82,4,8) occ(114,4,6) occ(118,4,4) occ(145,4,3) occ(153,4,5) occ(163,4,2) occ(169,4,1) occ(170,4,12) occ(176,4,11) occ(177,4,7) occ(17,5,12) occ(23,5,11) occ(27,5,9) occ(55,5,5) occ(76,5,6) occ(88,5,10) occ(92,5,8) occ(98,5,13) occ(120,5,2) occ(131,5,7) occ(143,5,1) occ(155,5,3) occ(165,5,4) occ(172,5,14) occ(12,6,3) occ(19,6,14) occ(33,6,9) occ(37,6,11) occ(51,6,6) occ(57,6,7) occ(74,6,4) occ(94,6,10) occ(99,6,12) occ(116,6,5) occ(124,6,1) occ(127,6,8) occ(167,6,2) occ(168,6,13) occ(10,7,1) occ(14,7,5) occ(29,7,8) occ(39,7,13) occ(53,7,4) occ(72,7,2) occ(81,7,10) occ(90,7,9) occ(96,7,12) occ(97,7,14) occ(122,7,3) occ(123,7,7) occ(129,7,6) occ(166,7,11) occ(8,8,3) occ(31,8,10) occ(49,8,7) occ(59,8,6) occ(83,8,12) occ(87,8,8) occ(101,8,11) occ(109,8,5) occ(125,8,9) occ(126,8,2) occ(164,8,13) occ(6,9,5) occ(16,9,6) occ(36,9,14) occ(41,9,12) occ(61,9,4) occ(70,9,1) occ(75,9,7) occ(79,9,11) occ(85,9,10) occ(91,9,9) occ(95,9,13) occ(121,9,8) occ(130,9,3) occ(34,10,12) occ(47,10,8) occ(54,10,2) occ(68,10,3) occ(73,10,5) occ(77,10,9) occ(89,10,7) occ(93,10,11) occ(103,10,10) occ(107,10,6) occ(111,10,4) occ(128,10,1) occ(162,10,14) occ(4,11,6) occ(18,11,7) occ(32,11,10) occ(38,11,13) occ(43,11,11) occ(56,11,4) occ(63,11,5) occ(71,11,3) occ(105,11,8) occ(119,11,9) occ(132,11,2) occ(160,11,12) occ(28,12,13) occ(44,12,11) occ(45,12,9) occ(52,12,3) occ(58,12,6) occ(66,12,2) occ(69,12,1) occ(113,12,5) occ(117,12,7) occ(138,12,4) occ(150,12,8) occ(154,12,10) occ(20,13,8) occ(24,13,12) occ(30,13,11) occ(40,13,14) occ(46,13,9) occ(50,13,5) occ(62,13,3) occ(65,13,4) occ(134,13,1) occ(140,13,2) occ(144,13,6) occ(148,13,10) occ(158,13,13) occ(22,14,10) occ(26,14,14) occ(42,14,12) occ(48,14,7) occ(60,14,5) occ(64,14,1) occ(67,14,2) occ(115,14,6) occ(136,14,3) occ(142,14,4) occ(146,14,8) occ(152,14,9) occ(156,14,11)
Optimization: -182
*** Info : (clingo): INTERRUPTED by signal!
SATISFIABLE

TIME LIMIT   : 1
Models       : 18+
  Optimum    : unknown
Optimization : -182
Calls        : 1
Time         : 300.000s (Solving: 285.33s 1st Model: 0.01s Unsat: 0.00s)
CPU Time     : 300.001s
